2151
341
244
338
495
1983
1235
1233
1238
843
1735
1577
218
1352
909
300
836
854
1263
1760
1137
1944
1931
1334
1200
1100
1059
1026
1579
963
299
1700
527
821
1751
1536
743
969
1798
720
426
1468
1734
600
1961
493
2191
826
1107
1408
